300
500
350
349
349
348
347
345
345
344
344
343
342
341
340
339
338
336
336
336
335
334
333
331
330
328
327
326
325
325
324
324
324
323
321
319
319
318
318
316
315
315
314
313
313
312
311
309
308
308
308
306
305
305
305
304
302
302
296
295
294
293
290
288
287
285
284
283
281
278
278
277
274
274
273
273
272
272
271
271
269
267
267
266
264
261
261
260
260
257
257
257
255
255
253
253
252
250
250
248
248
245
244
243
243
243
242
242
240
238
238
238
237
233
232
231
230
228
225
224
224
224
224
223
223
223
222
221
219
218
217
217
216
215
214
209
206
206
206
205
204
204
203
202
201
198
198
198
197
197
196
196
195
193
192
191
190
189
189
188
187
187
185
182
182
181
180
180
179
177
175
175
175
173
172
171
168
168
166
166
165
165
163
161
161
161
160
160
156
156
151
151
150
148
148
147
146
146
146
145
144
144
141
141
141
139
139
138
137
136
135
134
134
134
133
132
130
129
128
128
128
127
127
126
124
123
121
121
120
118
117
117
116
115
115
115
112
112
111
110
108
107
107
106
105
105
103
102
99
99
96
96
96
95
95
93
93
92
92
91
90
90
89
89
88
86
85
83
82
82
81
79
78
77
76
75
75
75
73
72
72
71
71
70
70
70
69
67
67
67
62
61
60
59
59
58
58
58
58
56
55
51
